70
    1    35    41
    2    44    41
    3    56    57
    4    53    60
    5    19    15
    6     9     7
    7    49    46
    8    25    23
    9    53    56
   10    54    61
   11    48    53
   12    56    58
   13    13    17
   14    10     3
   15     1     2
   16    60    54
   17    70    66
   18    55    55
   19     1     2
   20    67    63
   21    47    40
   22    53    59
   23    41    35
   24    46    44
   25    42    44
   26    68    67
   27     7     5
   28    23    21
   29    47    51
   30     3     8
   31    59    59
   32    58    59
   33    28    27
   34    18    12
   35    41    43
   36     2     2
   37    66    59
   38    37    38
   39    26    27
   40    64    66
   41    54    48
   42    21    19
   43    39    39
   44    66    63
   45     2     8
   46     9    14
   47    33    33
   48    72    65
   49    54    54
   50    38    35
   51    42    42
   52    19    25
   53    60    58
   54    74    69
   55    36    30
   56    32    39
   57    32    30
   58    17    14
   59    70    63
   60     3     9
   61    27    32
   62    67    70
   63    43    49
   64    47    40
   65    51    51
   66    55    57
   67    27    32
   68    46    40
   69     8     1
   70    59    57
71
